10
0 155 723 512 562 681 895 702 622 538
155 0 878 547 580 794 962 771 624 444
723 878 0 872 946 606 956 838 1029 1174
512 547 872 0 74 413 429 253 156 432
562 580 946 74 0 469 432 277 82 400
681 794 606 413 469 0 351 253 538 836
895 962 956 429 432 351 0 192 451 827
702 771 838 253 277 253 192 0 323 677
622 624 1029 156 82 538 451 323 0 379
538 444 1174 432 400 836 827 677 379 0
